problems/csplib-prob056/sonet-models/noch/O2/lingeling/model_6_1-s3ring12-solution000001.solution
language Essence 1.3

letting network be mset({}, {}, {1, 3, 6, 9, 13}, {1, 8, 10, 11, 12}, {2, 4, 5, 6, 8}, {4, 5, 7, 10, 13}, {6, 10})
$ Here is a simple "visualisation" for the value above.
$ 
$ 
$  1  3  6  9 13
$  1  8 10 11 12
$  2  4  5  6  8
$  4  5  7 10 13
$  6 10

